NAME:10_HardATSPLIB_10
TYPE: ATSP
DIMENSION: 10
EDGE_WEIGHT_TYPE: EXPLICIT
EDGE_WEIGHT_FORMAT: FULL_MATRIX
EDGE_WEIGHT_SECTION
0	38	19	40	34	39	21	20	21	22
0	0	17	2	0	21	17	20	5	0
21	35	0	21	35	40	36	41	36	35
0	38	19	0	18	19	19	20	19	14
14	52	33	14	0	33	17	34	5	0
1	35	0	1	19	0	0	17	0	7
17	35	36	33	19	52	0	17	0	7
0	18	19	20	14	39	21	0	9	4
29	47	36	33	19	52	12	29	0	7
24	52	41	26	12	45	17	34	5	0
